============================[ Problem Statistics ]=============================
|                                                                             |
|  Number of variables:          3508                                         |
|  Number of clauses:            9508                                         |
|  Parse time:                   0.01 s                                       |
|  Eliminated clauses:           0.05 Mb                                      |
|  Simplification time:          0.01 s                                       |
|                                                                             |
============================[ Search Statistics ]==============================
| Conflicts |          ORIGINAL         |          LEARNT          | Progress |
|           |    Vars  Clauses Literals |    Limit  Clauses Lit/Cl |          |
===============================================================================
|       100 |     232     1211     3778 |      444       92      8 | 57.241 % |
|       250 |     232     1211     3778 |      488      242      8 | 57.241 % |
|       475 |     214     1211     3778 |      537      465      8 | 57.754 % |
===============================================================================
restarts              : 5
conflicts             : 563            (25199 /sec)
decisions             : 1809           (0.00 % random) (80969 /sec)
propagations          : 20795          (930758 /sec)
conflict literals     : 4486           (20.69 % deleted)
Memory used           : 2.42 MB
CPU time              : 0.022342 s

UNSATISFIABLE
